Route #1: 16
Route #2: 17 15 14 2
Route #3: 12
Route #4: 5 26 13 3
Route #5: 27 6
Route #6: 1
Route #7: 8
Route #8: 10 18
Route #9: 24 30 21
Route #10: 7 22 4
Route #11: 23
Route #12: 25
Route #13: 28
Route #14: 19 29
Route #15: 11 9
Route #16: 31 20

Cost: 2865.5476116824993
